Route #1: 69 88 90 
Route #2: 83 52 99 57 86 74 
Route #3: 98 73 79 6 55 68 
Route #4: 5 45 2 7 8 46 3 1 4 100 70 
Route #5: 42 44 61 81 54 96 
Route #6: 14 47 12 53 78 60 
Route #7: 95 62 76 18 48 25 
Route #8: 72 71 67 94 91 80 
Route #9: 23 21 19 49 22 20 24 
Route #10: 82 11 15 16 9 10 13 17 
Route #11: 65 59 75 87 97 58 77 
Route #12: 39 36 38 41 40 43 37 35 
Route #13: 92 31 29 27 26 34 32 93 
Route #14: 64 51 85 84 56 66 
Route #15: 63 33 28 30 50 89 
Objective: 305259.5
